NAME : tsp35_17.200.tour
COMMENT : Length = 200
COMMENT : Found by LKH [Keld Helsgaun]
TYPE : TOUR
DIMENSION : 35
TOUR_SECTION
1
4
20
28
9
11
22
33
18
24
5
27
30
19
34
13
17
8
23
6
25
14
16
3
2
15
29
12
26
32
7
31
21
35
10
-1
EOF
